361 366 367 368 
408 413 414 415 
439 446 448 449 
469 476 478 479 
499 506 508 509 
529 536 538 539 
561 566 568 569 
590 595 597 598 
619 624 626 627 
648 653 655 656 
678 683 685 686 
708 713 715 716 
738 743 745 746 
768 773 775 776 
798 803 805 806 
828 833 835 836 
858 863 865 866 
888 893 895 896 
918 923 925 926 
948 953 955 956 
978 983 985 986 
1010 1015 1017 1018 
1041 1046 1048 1049 
1072 1077 1079 1080 
1101 1106 1108 1109 
1132 1137 1139 1140 
1153 1158 1160 1161 
1182 1187 1189 1190 
1218 1223 1225 1226 
1278 1283 1285 1286 
1338 1343 1345 1346 
1398 1403 1405 1406 
1462 1467 1469 1470 
